1563093
21,63,16,59,36,50,28,31,22,52,33,57,18,10,14,44,53,37,62,39,51,35,68,8,15,58,9,17,27,45,2,48,65,20,4,47,13,54,1,24,61,3,42,12,32,56,40,5,19,49,23,60,29,25,30,41,6,64,11,66,26,55,34,46,43,7,67,38,21